
Gurobi 11.0.3 (linux64) logging started Mon Aug 25 13:28:15 2025

Set parameter LogFile to value "/home/yihong/Coding/OR_SUC/SUC_epstheta_results_bigM100000_thread4/case24_ieee_rts_theta0.1_epsilon0.1_gurobi_seed80000_num_gen100_N_WDR50_load_scaling_factor1_ori_eps_T4quadra_cost_bc1.03.txt"
Set parameter TimeLimit to value 3600
Gurobi Optimizer version 11.0.3 build v11.0.3rc0 (linux64 - "Ubuntu 20.04.6 LTS")

CPU model: AMD EPYC 7532 32-Core Processor, instruction set [SSE2|AVX|AVX2]
Thread count: 64 physical cores, 128 logical processors, using up to 4 threads

Academic license 2399124 - for non-commercial use only - registered to yi___@ed.ac.uk
Optimize a model with 9128 rows, 5011 columns and 217718 nonzeros
Model fingerprint: 0x812b7330
Model has 400 quadratic constraints
Variable types: 4611 continuous, 400 integer (400 binary)
Coefficient statistics:
  Matrix range     [3e-04, 2e+03]
  QMatrix range    [2e-03, 8e-03]
  QLMatrix range   [6e-02, 6e+01]
  Objective range  [1e+00, 1e+00]
  Bounds range     [1e+00, 1e+00]
  RHS range        [1e+00, 9e+03]
Presolve removed 7548 rows and 2249 columns
Presolve time: 0.07s
Presolved: 1580 rows, 2762 columns, 9141 nonzeros
Presolved model has 400 quadratic constraint(s)
Variable types: 2362 continuous, 400 integer (400 binary)

Root relaxation: objective 4.739943e+03, 1255 iterations, 0.01 seconds (0.02 work units)

    Nodes    |    Current Node    |     Objective Bounds      |     Work
 Expl Unexpl |  Obj  Depth IntInf | Incumbent    BestBd   Gap | It/Node Time

     0     0 4739.94303    0    4          - 4739.94303      -     -    0s
     0     0 70291.9222    0  116          - 70291.9222      -     -    0s
     0     0 118354.390    0   60          - 118354.390      -     -    0s
     0     0 118356.589    0   56          - 118356.589      -     -    0s
     0     0 118388.506    0   32          - 118388.506      -     -    0s
     0     0 118388.535    0   32          - 118388.535      -     -    0s
     0     0 118388.535    0   32          - 118388.535      -     -    0s
     0     2 118388.536    0   32          - 118388.536      -     -    0s
H   62    89                    118436.92653 118390.392  0.04%   7.3    0s
*   62    89              22    118436.92653 118390.392  0.04%   7.3    0s
H   67    88                    118392.10857 118390.392  0.00%   7.0    0s
*   67    88              16    118392.10857 118390.392  0.00%   7.3    0s

Cutting planes:
  Gomory: 30
  Implied bound: 102
  MIR: 23
  Flow cover: 63

Explored 105 nodes (3867 simplex iterations) in 0.80 seconds (0.65 work units)
Thread count was 4 (of 128 available processors)

Solution count 3: 118392 118392 118437 

Optimal solution found (tolerance 1.00e-03)
Warning: max constraint violation (1.4741e-07) exceeds tolerance
Best objective 1.183921085743e+05, best bound 1.183903924981e+05, gap 0.0014%

Gurobi 11.0.3 (linux64) logging started Mon Aug 25 13:28:16 2025

Set parameter LogFile to value "/home/yihong/Coding/OR_SUC/SUC_epstheta_results_bigM100000_thread4/case24_ieee_rts_theta0.1_epsilon0.1_gurobi_seed80000_num_gen100_N_WDR50_load_scaling_factor1_ori_eps_T4quadra_cost_bc1.03.txt"
Set parameter TimeLimit to value 3600
Gurobi Optimizer version 11.0.3 build v11.0.3rc0 (linux64 - "Ubuntu 20.04.6 LTS")

CPU model: AMD EPYC 7532 32-Core Processor, instruction set [SSE2|AVX|AVX2]
Thread count: 64 physical cores, 128 logical processors, using up to 4 threads

Academic license 2399124 - for non-commercial use only - registered to yi___@ed.ac.uk
Optimize a model with 22856 rows, 5012 columns and 1703251 nonzeros
Model fingerprint: 0x4dc8d48e
Model has 401 quadratic constraints
Variable types: 4612 continuous, 400 integer (400 binary)
Coefficient statistics:
  Matrix range     [3e-04, 2e+03]
  QMatrix range    [2e-03, 5e+01]
  QLMatrix range   [6e-02, 6e+01]
  Objective range  [1e+00, 1e+00]
  Bounds range     [1e-01, 1e+00]
  RHS range        [4e-03, 1e+05]
  QRHS range       [5e+00, 5e+00]
Presolve removed 6852 rows and 1939 columns
Presolve time: 1.60s
Presolved: 16406 rows, 3474 columns, 344709 nonzeros
Presolved model has 400 quadratic constraint(s)
Presolved model has 1 bilinear constraint(s)
Warning: Model contains variables with very large bounds participating
         in product terms.
         Presolve was not able to compute smaller bounds for these variables.
         Consider bounding these variables or reformulating the model.


Solving non-convex MIQCP

Variable types: 3070 continuous, 404 integer (404 binary)

Root relaxation: objective 0.000000e+00, 2100 iterations, 0.35 seconds (0.86 work units)

    Nodes    |    Current Node    |     Objective Bounds      |     Work
 Expl Unexpl |  Obj  Depth IntInf | Incumbent    BestBd   Gap | It/Node Time

     0     0    0.00000    0    9          -    0.00000      -     -    4s
     0     0    0.00000    0    1          -    0.00000      -     -    4s
H    0     0                       0.0178170    0.00000   100%     -  536s
H    0     0                       0.0117191    0.00000   100%     -  536s
     0     0    0.01150    0    9    0.01172    0.01150  1.90%     -  537s
     0     0    0.01150    0    9    0.01172    0.01150  1.90%     -  537s
     0     0    0.01150    0    9    0.01172    0.01150  1.90%     -  537s
     0     0    0.01150    0    5    0.01172    0.01150  1.90%     -  537s
     0     0    0.01150    0    5    0.01172    0.01150  1.90%     -  538s
     0     0    0.01150    0    5    0.01172    0.01150  1.90%     -  538s
     0     0    0.01150    0    5    0.01172    0.01150  1.90%     -  538s
     0     0    0.01150    0    5    0.01172    0.01150  1.90%     -  538s
     0     0    0.01150    0    5    0.01172    0.01150  1.90%     -  539s
     0     0    0.01150    0    5    0.01172    0.01150  1.90%     -  539s
     0     2    0.01150    0    5    0.01172    0.01150  1.90%     -  539s
    23    28    0.01150    7    5    0.01172    0.01150  1.90%   8.5  540s
H   28    32                       0.0115288    0.01150  0.28%   7.4  540s
*  195    38              22       0.0114964    0.01150  0.00%   5.5 1317s

Cutting planes:
  Implied bound: 5
  MIR: 3
  RLT: 2

Explored 209 nodes (4409 simplex iterations) in 1317.91 seconds (948.01 work units)
Thread count was 4 (of 128 available processors)

Solution count 4: 0.0114964 0.0115288 0.0117191 0.017817 

Optimal solution found (tolerance 1.00e-03)
Best objective 1.149636420283e-02, best bound 1.149636420283e-02, gap 0.0000%
